WARNING: for repeatability, setting FPU to use double precision
Reading from standard input... Use '--help' for help.
============================[ Problem Statistics ]=============================
|                                                                             |
|  Number of variables:          4096                                         |
|  Number of clauses:           29295                                         |
|  Parse time:                   0.01 s                                       |
|  Eliminated clauses:           0.01 Mb                                      |
|  Simplification time:          0.01 s                                       |
|                                                                             |
LBD Based Clause Deletion : 1
Rapid Deletion : 1
Almost Conflict : 1
Anti Exploration : 1
============================[ Search Statistics ]==============================
| Conflicts |          ORIGINAL         |          LEARNT          | Progress |
|           |    Vars  Clauses Literals |    Limit  Clauses Lit/Cl |          |
===============================================================================
|       100 |     665     3791    11401 |     2000      100     26 | 65.576 % |
===============================================================================
restarts              : 2
conflicts             : 118            (5632 /sec)
decisions             : 353            (0.00 % random) (16848 /sec)
propagations          : 7644           (364834 /sec)
conflict literals     : 3379           (3.68 % deleted)
actual reward         : 0.257773
Memory used           : 9.00 MB
CPU time              : 0.020952 s

SATISFIABLE
